p cnf 656 1920
c inputs: 1 2 3 4 5 6 7 8 9 10 11 12 13 14 15 16
c variables for gates: 17 ... 640
c outputs: 641 642 643 644 645 646 647 648 649 650 651 652 653 654 655 656
c random input: -1 2 -3 -4 5 -6 -7 8 9 -10 -11 -12 -13 -14 15 -16
17 -1 -9 0
-17 1 0
-17 9 0
18 -2 -9 0
-18 2 0
-18 9 0
19 -3 -9 0
-19 3 0
-19 9 0
20 -4 -9 0
-20 4 0
-20 9 0
21 -5 -9 0
-21 5 0
-21 9 0
22 -6 -9 0
-22 6 0
-22 9 0
23 -7 -9 0
-23 7 0
-23 9 0
24 -8 -9 0
-24 8 0
-24 9 0
25 -1 -10 0
-25 1 0
-25 10 0
26 -2 -10 0
-26 2 0
-26 10 0
27 -3 -10 0
-27 3 0
-27 10 0
28 -4 -10 0
-28 4 0
-28 10 0
29 -5 -10 0
-29 5 0
-29 10 0
30 -6 -10 0
-30 6 0
-30 10 0
31 -7 -10 0
-31 7 0
-31 10 0
32 -8 -10 0
-32 8 0
-32 10 0
33 -1 -11 0
-33 1 0
-33 11 0
34 -2 -11 0
-34 2 0
-34 11 0
35 -3 -11 0
-35 3 0
-35 11 0
36 -4 -11 0
-36 4 0
-36 11 0
37 -5 -11 0
-37 5 0
-37 11 0
38 -6 -11 0
-38 6 0
-38 11 0
39 -7 -11 0
-39 7 0
-39 11 0
40 -8 -11 0
-40 8 0
-40 11 0
41 -1 -12 0
-41 1 0
-41 12 0
42 -2 -12 0
-42 2 0
-42 12 0
43 -3 -12 0
-43 3 0
-43 12 0
44 -4 -12 0
-44 4 0
-44 12 0
45 -5 -12 0
-45 5 0
-45 12 0
46 -6 -12 0
-46 6 0
-46 12 0
47 -7 -12 0
-47 7 0
-47 12 0
48 -8 -12 0
-48 8 0
-48 12 0
49 -1 -13 0
-49 1 0
-49 13 0
50 -2 -13 0
-50 2 0
-50 13 0
51 -3 -13 0
-51 3 0
-51 13 0
52 -4 -13 0
-52 4 0
-52 13 0
53 -5 -13 0
-53 5 0
-53 13 0
54 -6 -13 0
-54 6 0
-54 13 0
55 -7 -13 0
-55 7 0
-55 13 0
56 -8 -13 0
-56 8 0
-56 13 0
57 -1 -14 0
-57 1 0
-57 14 0
58 -2 -14 0
-58 2 0
-58 14 0
59 -3 -14 0
-59 3 0
-59 14 0
60 -4 -14 0
-60 4 0
-60 14 0
61 -5 -14 0
-61 5 0
-61 14 0
62 -6 -14 0
-62 6 0
-62 14 0
63 -7 -14 0
-63 7 0
-63 14 0
64 -8 -14 0
-64 8 0
-64 14 0
65 -1 -15 0
-65 1 0
-65 15 0
66 -2 -15 0
-66 2 0
-66 15 0
67 -3 -15 0
-67 3 0
-67 15 0
68 -4 -15 0
-68 4 0
-68 15 0
69 -5 -15 0
-69 5 0
-69 15 0
70 -6 -15 0
-70 6 0
-70 15 0
71 -7 -15 0
-71 7 0
-71 15 0
72 -8 -15 0
-72 8 0
-72 15 0
73 -1 -16 0
-73 1 0
-73 16 0
74 -2 -16 0
-74 2 0
-74 16 0
75 -3 -16 0
-75 3 0
-75 16 0
76 -4 -16 0
-76 4 0
-76 16 0
77 -5 -16 0
-77 5 0
-77 16 0
78 -6 -16 0
-78 6 0
-78 16 0
79 -7 -16 0
-79 7 0
-79 16 0
80 -8 -16 0
-80 8 0
-80 16 0
81 -58 -65 0
-81 58 0
-81 65 0
82 -65 58 0
-82 65 0
-82 -58 0
83 -58 65 0
-83 58 0
-83 -65 0
84 82 83 0
-84 -82 0
-84 -83 0
85 -73 -81 0
-85 73 0
-85 81 0
86 -66 -81 0
-86 66 0
-86 81 0
87 -66 -73 0
-87 66 0
-87 73 0
88 87 86 0
-88 -87 0
-88 -86 0
89 85 -88 0
-89 -85 0
-89 88 0
90 -73 66 0
-90 73 0
-90 -66 0
91 -66 73 0
-91 66 0
-91 -73 0
92 90 91 0
-92 -90 0
-92 -91 0
93 -81 -92 0
-93 81 0
-93 92 0
94 81 92 0
-94 -81 0
-94 -92 0
95 94 93 0
-95 -94 0
-95 -93 0
96 -59 95 0
-96 59 0
-96 -95 0
97 59 95 0
-97 -59 0
-97 -95 0
98 -59 -95 0
-98 59 0
-98 95 0
99 97 98 0
-99 -97 0
-99 -98 0
100 89 -96 0
-100 -89 0
-100 96 0
101 -74 -96 0
-101 74 0
-101 96 0
102 -74 89 0
-102 74 0
-102 -89 0
103 102 101 0
-103 -102 0
-103 -101 0
104 100 -103 0
-104 -100 0
-104 103 0
105 74 89 0
-105 -74 0
-105 -89 0
106 -74 -89 0
-106 74 0
-106 89 0
107 105 106 0
-107 -105 0
-107 -106 0
108 -96 -107 0
-108 96 0
-108 107 0
109 96 107 0
-109 -96 0
-109 -107 0
110 109 108 0
-110 -109 0
-110 -108 0
111 -67 110 0
-111 67 0
-111 -110 0
112 67 110 0
-112 -67 0
-112 -110 0
113 -67 -110 0
-113 67 0
-113 110 0
114 112 113 0
-114 -112 0
-114 -113 0
115 -111 104 0
-115 111 0
-115 -104 0
116 -75 -111 0
-116 75 0
-116 111 0
117 -75 104 0
-117 75 0
-117 -104 0
118 116 117 0
-118 -116 0
-118 -117 0
119 115 -118 0
-119 -115 0
-119 118 0
120 75 104 0
-120 -75 0
-120 -104 0
121 -75 -104 0
-121 75 0
-121 104 0
122 121 120 0
-122 -121 0
-122 -120 0
123 -111 -122 0
-123 111 0
-123 122 0
124 111 122 0
-124 -111 0
-124 -122 0
125 124 123 0
-125 -124 0
-125 -123 0
126 -42 -49 0
-126 42 0
-126 49 0
127 -49 42 0
-127 49 0
-127 -42 0
128 -42 49 0
-128 42 0
-128 -49 0
129 127 128 0
-129 -127 0
-129 -128 0
130 -57 -126 0
-130 57 0
-130 126 0
131 -50 -126 0
-131 50 0
-131 126 0
132 -50 -57 0
-132 50 0
-132 57 0
133 132 131 0
-133 -132 0
-133 -131 0
134 130 -133 0
-134 -130 0
-134 133 0
135 -57 50 0
-135 57 0
-135 -50 0
136 -50 57 0
-136 50 0
-136 -57 0
137 135 136 0
-137 -135 0
-137 -136 0
138 -126 -137 0
-138 126 0
-138 137 0
139 126 137 0
-139 -126 0
-139 -137 0
140 139 138 0
-140 -139 0
-140 -138 0
141 -43 140 0
-141 43 0
-141 -140 0
142 43 140 0
-142 -43 0
-142 -140 0
143 -43 -140 0
-143 43 0
-143 140 0
144 142 143 0
-144 -142 0
-144 -143 0
145 134 -141 0
-145 -134 0
-145 141 0
146 84 -141 0
-146 -84 0
-146 141 0
147 84 134 0
-147 -84 0
-147 -134 0
148 147 146 0
-148 -147 0
-148 -146 0
149 -148 145 0
-149 148 0
-149 -145 0
150 -84 134 0
-150 84 0
-150 -134 0
151 84 -134 0
-151 -84 0
-151 134 0
152 151 150 0
-152 -151 0
-152 -150 0
153 -152 -141 0
-153 152 0
-153 141 0
154 152 141 0
-154 -152 0
-154 -141 0
155 153 154 0
-155 -153 0
-155 -154 0
156 -51 155 0
-156 51 0
-156 -155 0
157 -44 155 0
-157 44 0
-157 -155 0
158 -44 -51 0
-158 44 0
-158 51 0
159 158 157 0
-159 -158 0
-159 -157 0
160 156 -159 0
-160 -156 0
-160 159 0
161 -51 44 0
-161 51 0
-161 -44 0
162 -44 51 0
-162 44 0
-162 -51 0
163 161 162 0
-163 -161 0
-163 -162 0
164 -163 155 0
-164 163 0
-164 -155 0
165 163 -155 0
-165 -163 0
-165 155 0
166 164 165 0
-166 -164 0
-166 -165 0
167 149 160 0
-167 -149 0
-167 -160 0
168 99 160 0
-168 -99 0
-168 -160 0
169 99 149 0
-169 -99 0
-169 -149 0
170 168 169 0
-170 -168 0
-170 -169 0
171 167 -170 0
-171 -167 0
-171 170 0
172 -99 149 0
-172 99 0
-172 -149 0
173 99 -149 0
-173 -99 0
-173 149 0
174 172 173 0
-174 -172 0
-174 -173 0
175 -174 160 0
-175 174 0
-175 -160 0
176 174 -160 0
-176 -174 0
-176 160 0
177 175 176 0
-177 -175 0
-177 -176 0
178 -52 177 0
-178 52 0
-178 -177 0
179 -45 177 0
-179 45 0
-179 -177 0
180 -52 -45 0
-180 52 0
-180 45 0
181 180 179 0
-181 -180 0
-181 -179 0
182 178 -181 0
-182 -178 0
-182 181 0
183 -52 45 0
-183 52 0
-183 -45 0
184 -45 52 0
-184 45 0
-184 -52 0
185 184 183 0
-185 -184 0
-185 -183 0
186 -185 177 0
-186 185 0
-186 -177 0
187 185 -177 0
-187 -185 0
-187 177 0
188 187 186 0
-188 -187 0
-188 -186 0
189 182 171 0
-189 -182 0
-189 -171 0
190 182 114 0
-190 -182 0
-190 -114 0
191 114 171 0
-191 -114 0
-191 -171 0
192 190 191 0
-192 -190 0
-192 -191 0
193 -192 189 0
-193 192 0
-193 -189 0
194 -114 171 0
-194 114 0
-194 -171 0
195 114 -171 0
-195 -114 0
-195 171 0
196 195 194 0
-196 -195 0
-196 -194 0
197 182 -196 0
-197 -182 0
-197 196 0
198 -182 196 0
-198 182 0
-198 -196 0
199 198 197 0
-199 -198 0
-199 -197 0
200 -60 199 0
-200 60 0
-200 -199 0
201 -53 199 0
-201 53 0
-201 -199 0
202 -60 -53 0
-202 60 0
-202 53 0
203 202 201 0
-203 -202 0
-203 -201 0
204 200 -203 0
-204 -200 0
-204 203 0
205 -60 53 0
-205 60 0
-205 -53 0
206 -53 60 0
-206 53 0
-206 -60 0
207 206 205 0
-207 -206 0
-207 -205 0
208 -207 199 0
-208 207 0
-208 -199 0
209 207 -199 0
-209 -207 0
-209 199 0
210 209 208 0
-210 -209 0
-210 -208 0
211 193 204 0
-211 -193 0
-211 -204 0
212 204 125 0
-212 -204 0
-212 -125 0
213 193 125 0
-213 -193 0
-213 -125 0
214 212 213 0
-214 -212 0
-214 -213 0
215 211 -214 0
-215 -211 0
-215 214 0
216 193 -125 0
-216 -193 0
-216 125 0
217 -193 125 0
-217 193 0
-217 -125 0
218 216 217 0
-218 -216 0
-218 -217 0
219 204 -218 0
-219 -204 0
-219 218 0
220 -204 218 0
-220 204 0
-220 -218 0
221 219 220 0
-221 -219 0
-221 -220 0
222 -68 221 0
-222 68 0
-222 -221 0
223 -61 221 0
-223 61 0
-223 -221 0
224 -68 -61 0
-224 68 0
-224 61 0
225 224 223 0
-225 -224 0
-225 -223 0
226 222 -225 0
-226 -222 0
-226 225 0
227 -68 61 0
-227 68 0
-227 -61 0
228 -61 68 0
-228 61 0
-228 -68 0
229 228 227 0
-229 -228 0
-229 -227 0
230 -229 221 0
-230 229 0
-230 -221 0
231 229 -221 0
-231 -229 0
-231 221 0
232 230 231 0
-232 -230 0
-232 -231 0
233 226 215 0
-233 -226 0
-233 -215 0
234 226 119 0
-234 -226 0
-234 -119 0
235 119 215 0
-235 -119 0
-235 -215 0
236 234 235 0
-236 -234 0
-236 -235 0
237 233 -236 0
-237 -233 0
-237 236 0
238 -119 215 0
-238 119 0
-238 -215 0
239 119 -215 0
-239 -119 0
-239 215 0
240 239 238 0
-240 -239 0
-240 -238 0
241 226 -240 0
-241 -226 0
-241 240 0
242 -226 240 0
-242 226 0
-242 -240 0
243 242 241 0
-243 -242 0
-243 -241 0
244 -76 243 0
-244 76 0
-244 -243 0
245 -69 243 0
-245 69 0
-245 -243 0
246 -76 -69 0
-246 76 0
-246 69 0
247 246 245 0
-247 -246 0
-247 -245 0
248 244 -247 0
-248 -244 0
-248 247 0
249 -76 69 0
-249 76 0
-249 -69 0
250 -69 76 0
-250 69 0
-250 -76 0
251 250 249 0
-251 -250 0
-251 -249 0
252 -251 243 0
-252 251 0
-252 -243 0
253 251 -243 0
-253 -251 0
-253 243 0
254 253 252 0
-254 -253 0
-254 -252 0
255 237 248 0
-255 -237 0
-255 -248 0
256 -77 248 0
-256 77 0
-256 -248 0
257 -77 237 0
-257 77 0
-257 -237 0
258 257 256 0
-258 -257 0
-258 -256 0
259 -258 255 0
-259 258 0
-259 -255 0
260 77 237 0
-260 -77 0
-260 -237 0
261 -77 -237 0
-261 77 0
-261 237 0
262 261 260 0
-262 -261 0
-262 -260 0
263 248 -262 0
-263 -248 0
-263 262 0
264 -248 262 0
-264 248 0
-264 -262 0
265 264 263 0
-265 -264 0
-265 -263 0
266 -34 -41 0
-266 34 0
-266 41 0
267 -41 34 0
-267 41 0
-267 -34 0
268 -34 41 0
-268 34 0
-268 -41 0
269 267 268 0
-269 -267 0
-269 -268 0
270 -266 129 0
-270 266 0
-270 -129 0
271 -35 -266 0
-271 35 0
-271 266 0
272 -35 129 0
-272 35 0
-272 -129 0
273 271 272 0
-273 -271 0
-273 -272 0
274 270 -273 0
-274 -270 0
-274 273 0
275 35 129 0
-275 -35 0
-275 -129 0
276 -35 -129 0
-276 35 0
-276 129 0
277 276 275 0
-277 -276 0
-277 -275 0
278 -266 -277 0
-278 266 0
-278 277 0
279 266 277 0
-279 -266 0
-279 -277 0
280 278 279 0
-280 -278 0
-280 -279 0
281 274 144 0
-281 -274 0
-281 -144 0
282 -36 274 0
-282 36 0
-282 -274 0
283 -36 144 0
-283 36 0
-283 -144 0
284 282 283 0
-284 -282 0
-284 -283 0
285 281 -284 0
-285 -281 0
-285 284 0
286 36 144 0
-286 -36 0
-286 -144 0
287 -36 -144 0
-287 36 0
-287 144 0
288 287 286 0
-288 -287 0
-288 -286 0
289 274 -288 0
-289 -274 0
-289 288 0
290 -274 288 0
-290 274 0
-290 -288 0
291 290 289 0
-291 -290 0
-291 -289 0
292 166 285 0
-292 -166 0
-292 -285 0
293 -37 285 0
-293 37 0
-293 -285 0
294 -37 166 0
-294 37 0
-294 -166 0
295 294 293 0
-295 -294 0
-295 -293 0
296 -295 292 0
-296 295 0
-296 -292 0
297 37 166 0
-297 -37 0
-297 -166 0
298 -37 -166 0
-298 37 0
-298 166 0
299 297 298 0
-299 -297 0
-299 -298 0
300 -299 285 0
-300 299 0
-300 -285 0
301 299 -285 0
-301 -299 0
-301 285 0
302 300 301 0
-302 -300 0
-302 -301 0
303 296 188 0
-303 -296 0
-303 -188 0
304 -38 296 0
-304 38 0
-304 -296 0
305 -38 188 0
-305 38 0
-305 -188 0
306 304 305 0
-306 -304 0
-306 -305 0
307 -306 303 0
-307 306 0
-307 -303 0
308 38 188 0
-308 -38 0
-308 -188 0
309 -38 -188 0
-309 38 0
-309 188 0
310 308 309 0
-310 -308 0
-310 -309 0
311 -310 296 0
-311 310 0
-311 -296 0
312 310 -296 0
-312 -310 0
-312 296 0
313 311 312 0
-313 -311 0
-313 -312 0
314 307 210 0
-314 -307 0
-314 -210 0
315 -46 307 0
-315 46 0
-315 -307 0
316 -46 210 0
-316 46 0
-316 -210 0
317 315 316 0
-317 -315 0
-317 -316 0
318 -317 314 0
-318 317 0
-318 -314 0
319 46 210 0
-319 -46 0
-319 -210 0
320 -46 -210 0
-320 46 0
-320 210 0
321 320 319 0
-321 -320 0
-321 -319 0
322 307 -321 0
-322 -307 0
-322 321 0
323 -307 321 0
-323 307 0
-323 -321 0
324 322 323 0
-324 -322 0
-324 -323 0
325 318 232 0
-325 -318 0
-325 -232 0
326 -54 318 0
-326 54 0
-326 -318 0
327 -54 232 0
-327 54 0
-327 -232 0
328 326 327 0
-328 -326 0
-328 -327 0
329 325 -328 0
-329 -325 0
-329 328 0
330 54 232 0
-330 -54 0
-330 -232 0
331 -54 -232 0
-331 54 0
-331 232 0
332 330 331 0
-332 -330 0
-332 -331 0
333 -332 318 0
-333 332 0
-333 -318 0
334 332 -318 0
-334 -332 0
-334 318 0
335 333 334 0
-335 -333 0
-335 -334 0
336 329 254 0
-336 -329 0
-336 -254 0
337 -62 329 0
-337 62 0
-337 -329 0
338 -62 254 0
-338 62 0
-338 -254 0
339 337 338 0
-339 -337 0
-339 -338 0
340 -339 336 0
-340 339 0
-340 -336 0
341 62 254 0
-341 -62 0
-341 -254 0
342 -62 -254 0
-342 62 0
-342 254 0
343 342 341 0
-343 -342 0
-343 -341 0
344 329 -343 0
-344 -329 0
-344 343 0
345 -329 343 0
-345 329 0
-345 -343 0
346 344 345 0
-346 -344 0
-346 -345 0
347 340 265 0
-347 -340 0
-347 -265 0
348 -70 340 0
-348 70 0
-348 -340 0
349 -70 265 0
-349 70 0
-349 -265 0
350 348 349 0
-350 -348 0
-350 -349 0
351 347 -350 0
-351 -347 0
-351 350 0
352 70 265 0
-352 -70 0
-352 -265 0
353 -70 -265 0
-353 70 0
-353 265 0
354 352 353 0
-354 -352 0
-354 -353 0
355 -354 340 0
-355 354 0
-355 -340 0
356 354 -340 0
-356 -354 0
-356 340 0
357 355 356 0
-357 -355 0
-357 -356 0
358 351 259 0
-358 -351 0
-358 -259 0
359 -78 351 0
-359 78 0
-359 -351 0
360 -78 259 0
-360 78 0
-360 -259 0
361 359 360 0
-361 -359 0
-361 -360 0
362 358 -361 0
-362 -358 0
-362 361 0
363 78 259 0
-363 -78 0
-363 -259 0
364 -78 -259 0
-364 78 0
-364 259 0
365 364 363 0
-365 -364 0
-365 -363 0
366 351 -365 0
-366 -351 0
-366 365 0
367 -351 365 0
-367 351 0
-367 -365 0
368 366 367 0
-368 -366 0
-368 -367 0
369 -26 -33 0
-369 26 0
-369 33 0
370 -33 26 0
-370 33 0
-370 -26 0
371 -26 33 0
-371 26 0
-371 -33 0
372 370 371 0
-372 -370 0
-372 -371 0
373 -369 269 0
-373 369 0
-373 -269 0
374 -27 -369 0
-374 27 0
-374 369 0
375 -27 269 0
-375 27 0
-375 -269 0
376 374 375 0
-376 -374 0
-376 -375 0
377 373 -376 0
-377 -373 0
-377 376 0
378 27 269 0
-378 -27 0
-378 -269 0
379 -27 -269 0
-379 27 0
-379 269 0
380 379 378 0
-380 -379 0
-380 -378 0
381 -369 -380 0
-381 369 0
-381 380 0
382 369 380 0
-382 -369 0
-382 -380 0
383 381 382 0
-383 -381 0
-383 -382 0
384 377 280 0
-384 -377 0
-384 -280 0
385 -28 377 0
-385 28 0
-385 -377 0
386 -28 280 0
-386 28 0
-386 -280 0
387 385 386 0
-387 -385 0
-387 -386 0
388 384 -387 0
-388 -384 0
-388 387 0
389 28 280 0
-389 -28 0
-389 -280 0
390 -28 -280 0
-390 28 0
-390 280 0
391 390 389 0
-391 -390 0
-391 -389 0
392 377 -391 0
-392 -377 0
-392 391 0
393 -377 391 0
-393 377 0
-393 -391 0
394 392 393 0
-394 -392 0
-394 -393 0
395 388 291 0
-395 -388 0
-395 -291 0
396 -29 388 0
-396 29 0
-396 -388 0
397 -29 291 0
-397 29 0
-397 -291 0
398 396 397 0
-398 -396 0
-398 -397 0
399 395 -398 0
-399 -395 0
-399 398 0
400 29 291 0
-400 -29 0
-400 -291 0
401 -29 -291 0
-401 29 0
-401 291 0
402 400 401 0
-402 -400 0
-402 -401 0
403 388 -402 0
-403 -388 0
-403 402 0
404 -388 402 0
-404 388 0
-404 -402 0
405 404 403 0
-405 -404 0
-405 -403 0
406 302 399 0
-406 -302 0
-406 -399 0
407 -30 399 0
-407 30 0
-407 -399 0
408 -30 302 0
-408 30 0
-408 -302 0
409 408 407 0
-409 -408 0
-409 -407 0
410 406 -409 0
-410 -406 0
-410 409 0
411 30 302 0
-411 -30 0
-411 -302 0
412 -30 -302 0
-412 30 0
-412 302 0
413 412 411 0
-413 -412 0
-413 -411 0
414 399 -413 0
-414 -399 0
-414 413 0
415 -399 413 0
-415 399 0
-415 -413 0
416 414 415 0
-416 -414 0
-416 -415 0
417 313 410 0
-417 -313 0
-417 -410 0
418 -31 410 0
-418 31 0
-418 -410 0
419 -31 313 0
-419 31 0
-419 -313 0
420 419 418 0
-420 -419 0
-420 -418 0
421 -420 417 0
-421 420 0
-421 -417 0
422 31 313 0
-422 -31 0
-422 -313 0
423 -31 -313 0
-423 31 0
-423 313 0
424 423 422 0
-424 -423 0
-424 -422 0
425 410 -424 0
-425 -410 0
-425 424 0
426 -410 424 0
-426 410 0
-426 -424 0
427 425 426 0
-427 -425 0
-427 -426 0
428 324 421 0
-428 -324 0
-428 -421 0
429 -39 421 0
-429 39 0
-429 -421 0
430 -39 324 0
-430 39 0
-430 -324 0
431 430 429 0
-431 -430 0
-431 -429 0
432 -431 428 0
-432 431 0
-432 -428 0
433 39 324 0
-433 -39 0
-433 -324 0
434 -39 -324 0
-434 39 0
-434 324 0
435 434 433 0
-435 -434 0
-435 -433 0
436 421 -435 0
-436 -421 0
-436 435 0
437 -421 435 0
-437 421 0
-437 -435 0
438 436 437 0
-438 -436 0
-438 -437 0
439 432 335 0
-439 -432 0
-439 -335 0
440 -47 432 0
-440 47 0
-440 -432 0
441 -47 335 0
-441 47 0
-441 -335 0
442 440 441 0
-442 -440 0
-442 -441 0
443 -442 439 0
-443 442 0
-443 -439 0
444 47 335 0
-444 -47 0
-444 -335 0
445 -47 -335 0
-445 47 0
-445 335 0
446 445 444 0
-446 -445 0
-446 -444 0
447 -446 432 0
-447 446 0
-447 -432 0
448 446 -432 0
-448 -446 0
-448 432 0
449 447 448 0
-449 -447 0
-449 -448 0
450 443 346 0
-450 -443 0
-450 -346 0
451 -55 443 0
-451 55 0
-451 -443 0
452 -55 346 0
-452 55 0
-452 -346 0
453 451 452 0
-453 -451 0
-453 -452 0
454 -453 450 0
-454 453 0
-454 -450 0
455 55 346 0
-455 -55 0
-455 -346 0
456 -55 -346 0
-456 55 0
-456 346 0
457 456 455 0
-457 -456 0
-457 -455 0
458 -457 443 0
-458 457 0
-458 -443 0
459 457 -443 0
-459 -457 0
-459 443 0
460 459 458 0
-460 -459 0
-460 -458 0
461 454 357 0
-461 -454 0
-461 -357 0
462 -63 454 0
-462 63 0
-462 -454 0
463 -63 357 0
-463 63 0
-463 -357 0
464 462 463 0
-464 -462 0
-464 -463 0
465 461 -464 0
-465 -461 0
-465 464 0
466 63 357 0
-466 -63 0
-466 -357 0
467 -63 -357 0
-467 63 0
-467 357 0
468 467 466 0
-468 -467 0
-468 -466 0
469 454 -468 0
-469 -454 0
-469 468 0
470 -454 468 0
-470 454 0
-470 -468 0
471 470 469 0
-471 -470 0
-471 -469 0
472 368 465 0
-472 -368 0
-472 -465 0
473 -71 465 0
-473 71 0
-473 -465 0
474 -71 368 0
-474 71 0
-474 -368 0
475 474 473 0
-475 -474 0
-475 -473 0
476 -475 472 0
-476 475 0
-476 -472 0
477 71 368 0
-477 -71 0
-477 -368 0
478 -71 -368 0
-478 71 0
-478 368 0
479 478 477 0
-479 -478 0
-479 -477 0
480 -479 465 0
-480 479 0
-480 -465 0
481 479 -465 0
-481 -479 0
-481 465 0
482 481 480 0
-482 -481 0
-482 -480 0
483 362 476 0
-483 -362 0
-483 -476 0
484 -79 476 0
-484 79 0
-484 -476 0
485 -79 362 0
-485 79 0
-485 -362 0
486 485 484 0
-486 -485 0
-486 -484 0
487 483 -486 0
-487 -483 0
-487 486 0
488 79 362 0
-488 -79 0
-488 -362 0
489 -79 -362 0
-489 79 0
-489 362 0
490 489 488 0
-490 -489 0
-490 -488 0
491 -490 476 0
-491 490 0
-491 -476 0
492 490 -476 0
-492 -490 0
-492 476 0
493 492 491 0
-493 -492 0
-493 -491 0
494 -18 25 0
-494 18 0
-494 -25 0
495 -25 18 0
-495 25 0
-495 -18 0
496 495 494 0
-496 -495 0
-496 -494 0
497 -18 -25 0
-497 18 0
-497 25 0
498 -19 -372 0
-498 19 0
-498 372 0
499 19 372 0
-499 -19 0
-499 -372 0
500 498 499 0
-500 -498 0
-500 -499 0
501 -497 -500 0
-501 497 0
-501 500 0
502 497 500 0
-502 -497 0
-502 -500 0
503 501 502 0
-503 -501 0
-503 -502 0
504 -19 -497 0
-504 19 0
-504 497 0
505 -497 372 0
-505 497 0
-505 -372 0
506 -19 372 0
-506 19 0
-506 -372 0
507 506 505 0
-507 -506 0
-507 -505 0
508 504 -507 0
-508 -504 0
-508 507 0
509 -20 -383 0
-509 20 0
-509 383 0
510 20 383 0
-510 -20 0
-510 -383 0
511 510 509 0
-511 -510 0
-511 -509 0
512 508 -511 0
-512 -508 0
-512 511 0
513 -508 511 0
-513 508 0
-513 -511 0
514 513 512 0
-514 -513 0
-514 -512 0
515 -20 508 0
-515 20 0
-515 -508 0
516 508 383 0
-516 -508 0
-516 -383 0
517 -20 383 0
-517 20 0
-517 -383 0
518 516 517 0
-518 -516 0
-518 -517 0
519 515 -518 0
-519 -515 0
-519 518 0
520 -21 -394 0
-520 21 0
-520 394 0
521 21 394 0
-521 -21 0
-521 -394 0
522 520 521 0
-522 -520 0
-522 -521 0
523 -522 519 0
-523 522 0
-523 -519 0
524 522 -519 0
-524 -522 0
-524 519 0
525 524 523 0
-525 -524 0
-525 -523 0
526 -21 519 0
-526 21 0
-526 -519 0
527 519 394 0
-527 -519 0
-527 -394 0
528 -21 394 0
-528 21 0
-528 -394 0
529 527 528 0
-529 -527 0
-529 -528 0
530 526 -529 0
-530 -526 0
-530 529 0
531 -22 -405 0
-531 22 0
-531 405 0
532 22 405 0
-532 -22 0
-532 -405 0
533 531 532 0
-533 -531 0
-533 -532 0
534 530 -533 0
-534 -530 0
-534 533 0
535 -530 533 0
-535 530 0
-535 -533 0
536 534 535 0
-536 -534 0
-536 -535 0
537 -22 530 0
-537 22 0
-537 -530 0
538 530 405 0
-538 -530 0
-538 -405 0
539 -22 405 0
-539 22 0
-539 -405 0
540 539 538 0
-540 -539 0
-540 -538 0
541 537 -540 0
-541 -537 0
-541 540 0
542 -23 -416 0
-542 23 0
-542 416 0
543 23 416 0
-543 -23 0
-543 -416 0
544 542 543 0
-544 -542 0
-544 -543 0
545 541 -544 0
-545 -541 0
-545 544 0
546 -541 544 0
-546 541 0
-546 -544 0
547 546 545 0
-547 -546 0
-547 -545 0
548 -23 541 0
-548 23 0
-548 -541 0
549 416 541 0
-549 -416 0
-549 -541 0
550 -23 416 0
-550 23 0
-550 -416 0
551 550 549 0
-551 -550 0
-551 -549 0
552 -551 548 0
-552 551 0
-552 -548 0
553 -24 -427 0
-553 24 0
-553 427 0
554 24 427 0
-554 -24 0
-554 -427 0
555 553 554 0
-555 -553 0
-555 -554 0
556 -555 552 0
-556 555 0
-556 -552 0
557 555 -552 0
-557 -555 0
-557 552 0
558 556 557 0
-558 -556 0
-558 -557 0
559 -24 552 0
-559 24 0
-559 -552 0
560 427 552 0
-560 -427 0
-560 -552 0
561 -24 427 0
-561 24 0
-561 -427 0
562 560 561 0
-562 -560 0
-562 -561 0
563 -562 559 0
-563 562 0
-563 -559 0
564 -32 -438 0
-564 32 0
-564 438 0
565 32 438 0
-565 -32 0
-565 -438 0
566 564 565 0
-566 -564 0
-566 -565 0
567 563 -566 0
-567 -563 0
-567 566 0
568 -563 566 0
-568 563 0
-568 -566 0
569 567 568 0
-569 -567 0
-569 -568 0
570 -32 563 0
-570 32 0
-570 -563 0
571 563 438 0
-571 -563 0
-571 -438 0
572 -32 438 0
-572 32 0
-572 -438 0
573 571 572 0
-573 -571 0
-573 -572 0
574 570 -573 0
-574 -570 0
-574 573 0
575 -40 -449 0
-575 40 0
-575 449 0
576 40 449 0
-576 -40 0
-576 -449 0
577 575 576 0
-577 -575 0
-577 -576 0
578 574 -577 0
-578 -574 0
-578 577 0
579 -574 577 0
-579 574 0
-579 -577 0
580 578 579 0
-580 -578 0
-580 -579 0
581 -40 574 0
-581 40 0
-581 -574 0
582 449 574 0
-582 -449 0
-582 -574 0
583 -40 449 0
-583 40 0
-583 -449 0
584 583 582 0
-584 -583 0
-584 -582 0
585 -584 581 0
-585 584 0
-585 -581 0
586 -48 -460 0
-586 48 0
-586 460 0
587 48 460 0
-587 -48 0
-587 -460 0
588 587 586 0
-588 -587 0
-588 -586 0
589 585 -588 0
-589 -585 0
-589 588 0
590 -585 588 0
-590 585 0
-590 -588 0
591 589 590 0
-591 -589 0
-591 -590 0
592 -48 585 0
-592 48 0
-592 -585 0
593 460 585 0
-593 -460 0
-593 -585 0
594 -48 460 0
-594 48 0
-594 -460 0
595 594 593 0
-595 -594 0
-595 -593 0
596 592 -595 0
-596 -592 0
-596 595 0
597 -56 -471 0
-597 56 0
-597 471 0
598 56 471 0
-598 -56 0
-598 -471 0
599 598 597 0
-599 -598 0
-599 -597 0
600 596 -599 0
-600 -596 0
-600 599 0
601 -596 599 0
-601 596 0
-601 -599 0
602 600 601 0
-602 -600 0
-602 -601 0
603 -56 596 0
-603 56 0
-603 -596 0
604 596 471 0
-604 -596 0
-604 -471 0
605 -56 471 0
-605 56 0
-605 -471 0
606 605 604 0
-606 -605 0
-606 -604 0
607 603 -606 0
-607 -603 0
-607 606 0
608 -64 -482 0
-608 64 0
-608 482 0
609 64 482 0
-609 -64 0
-609 -482 0
610 609 608 0
-610 -609 0
-610 -608 0
611 607 -610 0
-611 -607 0
-611 610 0
612 -607 610 0
-612 607 0
-612 -610 0
613 611 612 0
-613 -611 0
-613 -612 0
614 -64 607 0
-614 64 0
-614 -607 0
615 482 607 0
-615 -482 0
-615 -607 0
616 -64 482 0
-616 64 0
-616 -482 0
617 615 616 0
-617 -615 0
-617 -616 0
618 614 -617 0
-618 -614 0
-618 617 0
619 -72 -493 0
-619 72 0
-619 493 0
620 72 493 0
-620 -72 0
-620 -493 0
621 620 619 0
-621 -620 0
-621 -619 0
622 618 -621 0
-622 -618 0
-622 621 0
623 -618 621 0
-623 618 0
-623 -621 0
624 623 622 0
-624 -623 0
-624 -622 0
625 -72 618 0
-625 72 0
-625 -618 0
626 493 618 0
-626 -493 0
-626 -618 0
627 -72 493 0
-627 72 0
-627 -493 0
628 626 627 0
-628 -626 0
-628 -627 0
629 625 -628 0
-629 -625 0
-629 628 0
630 -80 -487 0
-630 80 0
-630 487 0
631 80 487 0
-631 -80 0
-631 -487 0
632 631 630 0
-632 -631 0
-632 -630 0
633 629 -632 0
-633 -629 0
-633 632 0
634 -629 632 0
-634 629 0
-634 -632 0
635 633 634 0
-635 -633 0
-635 -634 0
636 -80 629 0
-636 80 0
-636 -629 0
637 629 487 0
-637 -629 0
-637 -487 0
638 -80 487 0
-638 80 0
-638 -487 0
639 638 637 0
-639 -638 0
-639 -637 0
640 636 -639 0
-640 -636 0
-640 639 0
-641 17 0
641 -17 0
-642 -496 0
642 496 0
-643 -503 0
643 503 0
-644 -514 0
644 514 0
-645 -525 0
645 525 0
-646 -536 0
646 536 0
-647 -547 0
647 547 0
-648 -558 0
648 558 0
-649 -569 0
649 569 0
-650 -580 0
650 580 0
-651 -591 0
651 591 0
-652 -602 0
652 602 0
-653 -613 0
653 613 0
-654 -624 0
654 624 0
-655 -635 0
655 635 0
-656 -640 0
656 640 0
-641 0
642 0
-643 0
-644 0
645 0
-646 0
-647 0
-648 0
649 0
-650 0
651 0
-652 0
-653 0
654 0
-655 0
-656 0
